(set-logic HORN)
(set-info :source |
  Benchmark: ../golem/build/RealCodeNested/originalcodeMergedTransitionsceleton1.c
  Generated by Korn 0.4 https://github.com/gernst/korn
|)


(declare-fun __assert_fail (Int Int Int Int) Bool)
(declare-fun $main_sum4 (Int Int Int Int Int Int Int Int Int Int Int Int Int) Bool)
(declare-fun $main_sum3 (Int Int Int Int Int Int Int Int Int Int Int Int Int) Bool)
(declare-fun $main_inv2 (Int Int Int Int Int Int Int Int Int Int Int Int Int) Bool)
(declare-fun $main_inv3 (Int Int Int Int Int Int Int Int Int Int Int Int Int) Bool)
(declare-fun $__VERIFIER_assert_pre (Int) Bool)
(declare-fun $__VERIFIER_assert_if1 (Int Int) Bool)
(declare-fun $main_sum2 (Int Int Int Int Int Int Int Int Int Int Int Int Int) Bool)
(declare-fun $main_if2 (Int Int Int Int Int Int Int Int Int Int Int Int Int Int Int Int Int Int Int Int Int Int Int Int Int Int) Bool)
(declare-fun $main_if3 (Int Int Int Int Int Int Int Int Int Int Int Int Int Int Int Int Int Int Int Int Int Int Int Int Int Int) Bool)
(declare-fun $main_inv4 (Int Int Int Int Int Int Int Int Int Int Int Int Int) Bool)
(declare-fun $main_sum1 (Int Int Int Int Int Int Int Int Int Int Int Int Int) Bool)
(declare-fun $main_inv1 (Int Int Int Int Int Int Int Int Int Int Int Int Int) Bool)
(declare-fun __VERIFIER_assert (Int) Bool)
(declare-fun $__assert_fail_pre (Int Int Int Int) Bool)
(declare-fun $__VERIFIER_assert_ERROR (Int Int) Bool)

; label ERROR
(assert
  (forall ((cond!1 Int))
    (=> (and (not (not (= cond!1 0)))
             ($__VERIFIER_assert_pre cond!1))
        ($__VERIFIER_assert_ERROR cond!1 cond!1))))

; error
(assert
  (forall ((cond!1 Int) (cond!2 Int))
    (=> (and ($__VERIFIER_assert_ERROR cond!1 cond!2))
        false)))

; if else
(assert
  (forall ((cond!1 Int))
    (=> (and (not (not (not (= cond!1 0))))
             ($__VERIFIER_assert_pre cond!1))
        ($__VERIFIER_assert_if1 cond!1 cond!1))))

; post __VERIFIER_assert
(assert
  (forall ((cond!1 Int) (cond!3 Int))
    (=> (and ($__VERIFIER_assert_if1 cond!1 cond!3))
        (__VERIFIER_assert cond!1))))

; loop entry $main_inv1 (line 20)
(assert
  (forall ((coreVars!4 Int) (loop!13 Int) (loops!8 Int) (n!14 Int) (i!11 Int) (auxiliaryVars!5 Int) (var!10 Int) (someCondition!16 Int) (allVars!6 Int) (loopMTr!12 Int) (loopSize!9 Int) (generalMTr!15 Int) (edgeVars!7 Int))
    (=> (and (= i!11 0)
             (= var!10 0)
             (<= (* edgeVars!7 2) allVars!6)
             (<= allVars!6 (* edgeVars!7 10))
             (<= 50 edgeVars!7)
             (<= edgeVars!7 1000)
             (<= 5 loops!8)
             (<= loops!8 100)
             (<= 40 loopSize!9)
             (<= loopSize!9 100)
             (= auxiliaryVars!5 0)
             (= coreVars!4 0))
        ($main_inv1 coreVars!4 auxiliaryVars!5 allVars!6 edgeVars!7 loops!8 loopSize!9 var!10 i!11 loopMTr!12 loop!13 n!14 generalMTr!15 someCondition!16))))

; loop term $main_sum1 (line 20)
(assert
  (forall ((loopSize!22 Int) (loop!26 Int) (auxiliaryVars!18 Int) (n!27 Int) (i!24 Int) (var!23 Int) (loopMTr!25 Int) (edgeVars!20 Int) (coreVars!17 Int) (generalMTr!28 Int) (someCondition!29 Int) (allVars!19 Int) (loops!21 Int))
    (=> (and (not (< var!23 edgeVars!20))
             ($main_inv1 coreVars!17 auxiliaryVars!18 allVars!19 edgeVars!20 loops!21 loopSize!22 var!23 i!24 loopMTr!25 loop!26 n!27 generalMTr!28 someCondition!29))
        ($main_sum1 coreVars!17 auxiliaryVars!18 allVars!19 edgeVars!20 loops!21 loopSize!22 var!23 i!24 loopMTr!25 loop!26 n!27 generalMTr!28 someCondition!29))))

; forwards $main_inv1 (line 20)
(assert
  (forall ((loopSize!22 Int) (loop!26 Int) (auxiliaryVars!18 Int) (n!27 Int) (i!24 Int) (var!23 Int) (loopMTr!25 Int) (edgeVars!20 Int) (coreVars!17 Int) (generalMTr!28 Int) (someCondition!29 Int) (allVars!19 Int) (loops!21 Int))
    (=> (and (< var!23 edgeVars!20)
             ($main_inv1 coreVars!17 auxiliaryVars!18 allVars!19 edgeVars!20 loops!21 loopSize!22 var!23 i!24 loopMTr!25 loop!26 n!27 generalMTr!28 someCondition!29))
        ($main_inv1 (+ (+ coreVars!17 1) 1) auxiliaryVars!18 allVars!19 edgeVars!20 loops!21 loopSize!22 (+ var!23 1) i!24 loopMTr!25 loop!26 n!27 generalMTr!28 someCondition!29))))

; loop entry $main_inv2 (line 30)
(assert
  (forall ((coreVars!30 Int) (loop!39 Int) (loops!34 Int) (n!40 Int) (generalMTr!41 Int) (loopMTr!38 Int) (loopSize!35 Int) (edgeVars!33 Int) (auxiliaryVars!31 Int) (var!36 Int) (i!37 Int) (allVars!32 Int) (someCondition!42 Int))
    (=> (and (= generalMTr!41 0)
             (= n!40 0)
             (= loop!39 0)
             (= loopMTr!38 0)
             ($main_sum1 coreVars!30 auxiliaryVars!31 allVars!32 edgeVars!33 loops!34 loopSize!35 var!36 i!37 loopMTr!38 loop!39 n!40 generalMTr!41 someCondition!42))
        ($main_inv2 coreVars!30 auxiliaryVars!31 allVars!32 edgeVars!33 loops!34 loopSize!35 var!36 i!37 loopMTr!38 loop!39 n!40 generalMTr!41 someCondition!42))))

; loop term $main_sum2 (line 30)
(assert
  (forall ((loops!47 Int) (allVars!45 Int) (loopMTr!51 Int) (generalMTr!54 Int) (loop!52 Int) (auxiliaryVars!44 Int) (i!50 Int) (edgeVars!46 Int) (someCondition!55 Int) (n!53 Int) (coreVars!43 Int) (loopSize!48 Int) (var!49 Int))
    (=> (and (not (< loop!52 loops!47))
             ($main_inv2 coreVars!43 auxiliaryVars!44 allVars!45 edgeVars!46 loops!47 loopSize!48 var!49 i!50 loopMTr!51 loop!52 n!53 generalMTr!54 someCondition!55))
        ($main_sum2 coreVars!43 auxiliaryVars!44 allVars!45 edgeVars!46 loops!47 loopSize!48 var!49 i!50 loopMTr!51 loop!52 n!53 generalMTr!54 someCondition!55))))

; loop entry $main_inv3 (line 32)
(assert
  (forall ((loops!47 Int) (allVars!45 Int) (loopMTr!51 Int) (generalMTr!54 Int) (loop!52 Int) (auxiliaryVars!44 Int) (i!50 Int) (edgeVars!46 Int) (someCondition!55 Int) (n!53 Int) (coreVars!43 Int) (loopSize!48 Int) (var!49 Int))
    (=> (and (< loop!52 loops!47)
             ($main_inv2 coreVars!43 auxiliaryVars!44 allVars!45 edgeVars!46 loops!47 loopSize!48 var!49 i!50 loopMTr!51 loop!52 n!53 generalMTr!54 someCondition!55))
        ($main_inv3 coreVars!43 auxiliaryVars!44 allVars!45 edgeVars!46 loops!47 loopSize!48 0 i!50 loopMTr!51 loop!52 n!53 generalMTr!54 someCondition!55))))

; loop term $main_sum3 (line 32)
(assert
  (forall ((loops!60 Int) (someCondition!68 Int) (loop!65 Int) (var!62 Int) (coreVars!56 Int) (auxiliaryVars!57 Int) (i!63 Int) (loopSize!61 Int) (generalMTr!67 Int) (edgeVars!59 Int) (allVars!58 Int) (loopMTr!64 Int) (n!66 Int))
    (=> (and (not (< i!63 loopSize!61))
             ($main_inv3 coreVars!56 auxiliaryVars!57 allVars!58 edgeVars!59 loops!60 loopSize!61 var!62 i!63 loopMTr!64 loop!65 n!66 generalMTr!67 someCondition!68))
        ($main_sum3 coreVars!56 auxiliaryVars!57 allVars!58 edgeVars!59 loops!60 loopSize!61 var!62 i!63 loopMTr!64 loop!65 n!66 generalMTr!67 someCondition!68))))

; ite left
(assert
  (forall ((loops!60 Int) (someCondition!68 Int) (loop!65 Int) (var!62 Int) (coreVars!56 Int) (auxiliaryVars!57 Int) (i!63 Int) (loopSize!61 Int) (generalMTr!67 Int) (edgeVars!59 Int) (allVars!58 Int) (loopMTr!64 Int) (n!66 Int))
    (=> (and (= i!63 0)
             (< i!63 loopSize!61)
             ($main_inv3 coreVars!56 auxiliaryVars!57 allVars!58 edgeVars!59 loops!60 loopSize!61 var!62 i!63 loopMTr!64 loop!65 n!66 generalMTr!67 someCondition!68))
        ($main_if2 coreVars!56 auxiliaryVars!57 allVars!58 edgeVars!59 loops!60 loopSize!61 var!62 i!63 loopMTr!64 loop!65 n!66 generalMTr!67 someCondition!68 coreVars!56 auxiliaryVars!57 allVars!58 edgeVars!59 loops!60 loopSize!61 var!62 i!63 loopMTr!64 loop!65 n!66 generalMTr!67 someCondition!68))))

; ite right
(assert
  (forall ((loops!60 Int) (someCondition!68 Int) (loop!65 Int) (var!62 Int) (coreVars!56 Int) (auxiliaryVars!57 Int) (i!63 Int) (loopSize!61 Int) (generalMTr!67 Int) (edgeVars!59 Int) (allVars!58 Int) (loopMTr!64 Int) (n!66 Int))
    (=> (and (not (= i!63 0))
             (< i!63 loopSize!61)
             ($main_inv3 coreVars!56 auxiliaryVars!57 allVars!58 edgeVars!59 loops!60 loopSize!61 var!62 i!63 loopMTr!64 loop!65 n!66 generalMTr!67 someCondition!68))
        ($main_if2 coreVars!56 auxiliaryVars!57 allVars!58 edgeVars!59 loops!60 loopSize!61 var!62 i!63 loopMTr!64 loop!65 n!66 generalMTr!67 someCondition!68 coreVars!56 auxiliaryVars!57 allVars!58 edgeVars!59 loops!60 loopSize!61 var!62 i!63 loopMTr!64 loop!65 n!66 generalMTr!67 someCondition!68))))

; forwards $main_inv3 (line 32)
(assert
  (forall ((loops!60 Int) (someCondition!81 Int) (loops!73 Int) (someCondition!68 Int) (loopMTr!77 Int) (allVars!71 Int) (loop!65 Int) (edgeVars!72 Int) (var!75 Int) (coreVars!56 Int) (coreVars!69 Int) (auxiliaryVars!70 Int) (loopSize!61 Int) (generalMTr!67 Int) (edgeVars!59 Int) (i!76 Int) (generalMTr!80 Int) (var!62 Int) (loop!78 Int) (auxiliaryVars!57 Int) (n!79 Int) (i!63 Int) (loopSize!74 Int) (allVars!58 Int) (loopMTr!64 Int) (n!66 Int))
    (=> (and ($main_if2 coreVars!56 auxiliaryVars!57 allVars!58 edgeVars!59 loops!60 loopSize!61 var!62 i!63 loopMTr!64 loop!65 n!66 generalMTr!67 someCondition!68 coreVars!69 auxiliaryVars!70 allVars!71 edgeVars!72 loops!73 loopSize!74 var!75 i!76 loopMTr!77 loop!78 n!79 generalMTr!80 someCondition!81))
        ($main_inv3 coreVars!69 auxiliaryVars!70 allVars!71 edgeVars!72 loops!73 loopSize!74 var!75 (+ i!76 1) (+ loopMTr!77 (ite (= i!63 0) (+ n!66 2) (+ n!66 4))) loop!78 (ite (= i!63 0) (+ n!66 2) (+ n!66 4)) generalMTr!80 someCondition!81))))

; loop entry $main_inv4 (line 38)
(assert
  (forall ((someCondition!94 Int) (coreVars!82 Int) (loop!91 Int) (n!92 Int) (auxiliaryVars!83 Int) (loopMTr!90 Int) (var!88 Int) (i!89 Int) (generalMTr!93 Int) (loops!86 Int) (allVars!84 Int) (edgeVars!85 Int) (loopSize!87 Int))
    (=> (and ($main_sum3 coreVars!82 auxiliaryVars!83 allVars!84 edgeVars!85 loops!86 loopSize!87 var!88 i!89 loopMTr!90 loop!91 n!92 generalMTr!93 someCondition!94))
        ($main_inv4 coreVars!82 auxiliaryVars!83 allVars!84 edgeVars!85 loops!86 loopSize!87 var!88 i!89 loopMTr!90 loop!91 n!92 generalMTr!93 someCondition!94))))

; loop term $main_sum4 (line 38)
(assert
  (forall ((i!102 Int) (allVars!97 Int) (loop!104 Int) (var!101 Int) (loopSize!100 Int) (someCondition!107 Int) (loops!99 Int) (edgeVars!98 Int) (loopMTr!103 Int) (n!105 Int) (auxiliaryVars!96 Int) (generalMTr!106 Int) (coreVars!95 Int))
    (=> (and (not (< var!101 allVars!97))
             ($main_inv4 coreVars!95 auxiliaryVars!96 allVars!97 edgeVars!98 loops!99 loopSize!100 var!101 i!102 loopMTr!103 loop!104 n!105 generalMTr!106 someCondition!107))
        ($main_sum4 coreVars!95 auxiliaryVars!96 allVars!97 edgeVars!98 loops!99 loopSize!100 var!101 i!102 loopMTr!103 loop!104 n!105 generalMTr!106 someCondition!107))))

; if then
(assert
  (forall ((i!102 Int) (allVars!97 Int) (loop!104 Int) (var!101 Int) (loopSize!100 Int) (someCondition!107 Int) (loops!99 Int) (edgeVars!98 Int) (loopMTr!103 Int) (n!105 Int) (auxiliaryVars!96 Int) (generalMTr!106 Int) (coreVars!95 Int))
    (=> (and (> someCondition!107 0)
             (< var!101 allVars!97)
             ($main_inv4 coreVars!95 auxiliaryVars!96 allVars!97 edgeVars!98 loops!99 loopSize!100 var!101 i!102 loopMTr!103 loop!104 n!105 generalMTr!106 someCondition!107))
        ($main_if3 coreVars!95 auxiliaryVars!96 allVars!97 edgeVars!98 loops!99 loopSize!100 var!101 i!102 loopMTr!103 loop!104 n!105 generalMTr!106 someCondition!107 coreVars!95 (+ auxiliaryVars!96 1) allVars!97 edgeVars!98 loops!99 loopSize!100 var!101 i!102 loopMTr!103 loop!104 n!105 generalMTr!106 someCondition!107))))

; if else
(assert
  (forall ((i!102 Int) (allVars!97 Int) (loop!104 Int) (var!101 Int) (loopSize!100 Int) (someCondition!107 Int) (loops!99 Int) (edgeVars!98 Int) (loopMTr!103 Int) (n!105 Int) (auxiliaryVars!96 Int) (generalMTr!106 Int) (coreVars!95 Int))
    (=> (and (not (> someCondition!107 0))
             (< var!101 allVars!97)
             ($main_inv4 coreVars!95 auxiliaryVars!96 allVars!97 edgeVars!98 loops!99 loopSize!100 var!101 i!102 loopMTr!103 loop!104 n!105 generalMTr!106 someCondition!107))
        ($main_if3 coreVars!95 auxiliaryVars!96 allVars!97 edgeVars!98 loops!99 loopSize!100 var!101 i!102 loopMTr!103 loop!104 n!105 generalMTr!106 someCondition!107 coreVars!95 auxiliaryVars!96 allVars!97 edgeVars!98 loops!99 loopSize!100 var!101 i!102 loopMTr!103 loop!104 n!105 generalMTr!106 someCondition!107))))

; forwards $main_inv4 (line 38)
(assert
  (forall ((n!118 Int) (someCondition!120 Int) (allVars!97 Int) (loop!104 Int) (loopMTr!116 Int) (edgeVars!111 Int) (var!101 Int) (loopSize!100 Int) (auxiliaryVars!109 Int) (someCondition!107 Int) (loops!99 Int) (coreVars!108 Int) (n!105 Int) (auxiliaryVars!96 Int) (i!102 Int) (loopSize!113 Int) (i!115 Int) (loops!112 Int) (loop!117 Int) (generalMTr!106 Int) (generalMTr!119 Int) (coreVars!95 Int) (edgeVars!98 Int) (var!114 Int) (allVars!110 Int) (loopMTr!103 Int))
    (=> (and ($main_if3 coreVars!95 auxiliaryVars!96 allVars!97 edgeVars!98 loops!99 loopSize!100 var!101 i!102 loopMTr!103 loop!104 n!105 generalMTr!106 someCondition!107 coreVars!108 auxiliaryVars!109 allVars!110 edgeVars!111 loops!112 loopSize!113 var!114 i!115 loopMTr!116 loop!117 n!118 generalMTr!119 someCondition!120))
        ($main_inv4 coreVars!108 auxiliaryVars!109 allVars!110 edgeVars!111 loops!112 loopSize!113 (+ var!114 1) i!115 loopMTr!116 loop!117 n!118 generalMTr!119 someCondition!120))))

; forwards $main_inv2 (line 30)
(assert
  (forall ((i!128 Int) (loop!130 Int) (loops!125 Int) (coreVars!121 Int) (someCondition!133 Int) (edgeVars!124 Int) (var!127 Int) (generalMTr!132 Int) (auxiliaryVars!122 Int) (allVars!123 Int) (n!131 Int) (loopMTr!129 Int) (loopSize!126 Int))
    (=> (and ($main_sum4 coreVars!121 auxiliaryVars!122 allVars!123 edgeVars!124 loops!125 loopSize!126 var!127 i!128 loopMTr!129 loop!130 n!131 generalMTr!132 someCondition!133))
        ($main_inv2 coreVars!121 auxiliaryVars!122 allVars!123 edgeVars!124 loops!125 loopSize!126 var!127 i!128 loopMTr!129 (+ loop!130 1) n!131 (+ generalMTr!132 loopMTr!129) someCondition!133))))

; VERIFIER_assert (> allVars!136 auxiliaryVars!135)
(assert
  (forall ((loopMTr!142 Int) (someCondition!146 Int) (auxiliaryVars!135 Int) (generalMTr!145 Int) (i!141 Int) (n!144 Int) (var!140 Int) (allVars!136 Int) (loopSize!139 Int) (loop!143 Int) (edgeVars!137 Int) (coreVars!134 Int) (loops!138 Int))
    (=> (and (not (> allVars!136 auxiliaryVars!135))
             ($main_sum2 coreVars!134 auxiliaryVars!135 allVars!136 edgeVars!137 loops!138 loopSize!139 var!140 i!141 loopMTr!142 loop!143 n!144 generalMTr!145 someCondition!146))
        false)))

(check-sat)
